p cnf 10 27
-9 -3 7 0
-2 0
1 10 7 0
1 -4 7 0
3 0
-7 3 9 -1 0
-8 -2 0
-3 -9 0
9 -5 -10 0
-7 4 6 0
9 0
-7 2 3 5 0
-6 0
8 -2 7 0
-4 6 0
9 -6 0
-8 9 -6 -10 0
9 10 5 6 0
-1 -9 0
2 7 6 -9 0
8 4 5 6 0
9 -4 -1 7 0
4 -3 0
-6 -4 -3 -2 0
8 -6 -2 0
4 0
9 -6 3 1 0
